Route #1:
Route #2: 20
Route #3: 8 15 4 11 14
Route #4: 10 6 3
Route #5: 25 26
Route #6: 7 31 19
Route #7: 24
Route #8: 17 1 2 13 22 28 30
Route #9: 23 29
Route #10: 21 16 9 18
Route #11: 12
Route #12: 27
Route #13: 5

Cost: 2163.2368062718156
